132 5
10 10 10 10 10 

0 0 0 0 0 0 1 2 
0 0 0 0 0 0 3 3 5 12 
8 0 0 0 0 1 4 11 10 9 4 
2 0 0 0 0 1 3 8 7 6 
1 0 0 0 0 6 1 6 
6 0 0 0 0 3 1 13 
9 0 0 0 0 2 1 13 
2 0 0 0 0 2 1 13 
2 0 0 0 0 2 1 13 
3 0 0 0 0 4 1 13 
9 0 0 0 0 2 1 13 
6 0 0 0 0 2 1 13 
0 0 0 0 0 0 1 14 
0 0 0 0 0 0 4 15 16 17 24 
2 0 0 0 1 0 4 23 20 19 18 
8 0 0 0 1 0 3 23 20 18 
4 0 0 0 2 0 3 23 19 18 
8 0 0 0 5 0 2 22 21 
7 0 0 0 2 0 1 22 
1 0 0 0 3 0 1 21 
10 0 0 0 3 0 1 25 
7 0 0 0 2 0 1 25 
9 0 0 0 3 0 1 25 
6 0 0 0 3 0 1 25 
0 0 0 0 0 0 1 26 
0 0 0 0 0 0 4 27 28 29 36 
10 0 0 1 0 0 4 35 34 33 31 
8 0 0 4 0 0 3 34 33 32 
5 0 0 3 0 0 1 30 
9 0 0 2 0 0 2 33 32 
8 0 0 4 0 0 1 32 
7 0 0 1 0 0 1 37 
5 0 0 2 0 0 1 37 
10 0 0 2 0 0 1 37 
1 0 0 5 0 0 1 37 
2 0 0 1 0 0 1 37 
0 0 0 0 0 0 2 38 60 
0 0 0 0 0 0 8 39 40 42 43 44 56 57 58 
7 0 0 1 1 0 3 52 47 41 
10 0 0 5 3 0 7 55 53 52 51 50 47 46 
9 0 0 1 2 0 4 53 50 49 45 
2 0 0 4 2 0 4 52 51 49 46 
3 0 0 3 3 0 4 54 51 47 103 
7 0 0 4 2 0 3 50 49 47 
4 0 0 2 5 0 1 46 
10 0 0 1 3 0 1 48 
3 0 0 1 4 0 1 48 
3 0 0 3 3 0 1 59 
6 0 0 6 2 0 1 59 
2 0 0 2 3 0 1 59 
9 0 0 3 3 0 1 59 
7 0 0 4 2 0 1 59 
2 0 0 2 1 0 1 59 
5 0 0 1 3 0 1 59 
6 0 0 2 2 0 1 59 
5 0 0 2 4 0 1 59 
4 0 0 2 1 0 1 59 
4 0 0 1 1 0 1 59 
0 0 0 0 0 0 1 132 
0 0 0 0 0 0 5 61 63 64 69 70 
8 0 0 0 1 0 2 68 62 
10 0 0 0 2 0 3 67 66 112 
4 0 0 0 4 0 1 65 
8 0 0 0 4 0 1 65 
6 0 0 0 3 0 1 71 
10 0 0 0 2 0 1 71 
5 0 0 0 1 0 1 71 
8 0 0 0 3 0 1 71 
4 0 0 0 4 0 1 71 
7 0 0 0 1 0 1 71 
0 0 0 0 0 0 5 72 84 96 108 120 
0 0 0 0 0 0 5 73 74 75 76 82 
5 0 0 1 0 0 3 81 79 78 
3 0 0 2 0 0 3 81 78 127 
8 0 0 4 0 0 2 81 77 
9 0 0 3 0 0 2 81 77 
4 0 0 2 0 0 1 80 
6 0 0 1 0 0 1 80 
10 0 0 2 0 0 1 80 
1 0 0 4 0 0 1 83 
5 0 0 3 0 0 1 83 
1 0 0 3 0 0 1 83 
0 0 0 0 0 0 1 132 
0 0 0 0 0 0 6 85 86 87 88 90 92 
8 0 1 0 0 0 2 91 89 
10 0 2 0 0 0 2 91 89 
8 0 3 0 0 0 2 91 89 
1 0 3 0 0 0 2 91 89 
1 0 3 0 0 0 2 94 93 
1 0 4 0 0 0 2 94 93 
2 0 3 0 0 0 2 94 122 
5 0 2 0 0 0 1 93 
4 0 1 0 0 0 1 95 
9 0 3 0 0 0 1 95 
0 0 0 0 0 0 1 132 
0 0 0 0 0 0 7 97 98 99 103 104 105 106 
10 0 0 1 0 0 2 102 100 
2 0 0 2 0 0 1 100 
8 0 0 1 0 0 1 100 
2 0 0 2 0 0 1 101 
2 0 0 3 0 0 1 107 
2 0 0 1 0 0 2 107 122 
2 0 0 4 0 0 1 107 
5 0 0 5 0 0 1 107 
6 0 0 3 0 0 1 107 
6 0 0 3 0 0 1 107 
0 0 0 0 0 0 1 132 
0 0 0 0 0 0 5 109 110 111 112 118 
3 0 0 1 0 0 3 117 115 114 
9 0 0 1 0 0 2 117 113 
6 0 0 1 0 0 2 117 116 
4 0 0 2 0 0 2 117 116 
1 0 0 2 0 0 1 116 
1 0 0 8 0 0 1 116 
1 0 0 2 0 0 1 116 
6 0 0 4 0 0 2 119 122 
5 0 0 2 0 0 1 119 
5 0 0 2 0 0 1 119 
0 0 0 0 0 0 1 132 
0 0 0 0 0 0 3 121 122 125 
3 0 0 0 0 1 3 130 124 123 
10 0 0 0 0 1 3 129 127 126 
3 0 0 0 0 1 1 127 
6 0 0 0 0 2 1 126 
9 0 0 0 0 3 1 128 
4 0 0 0 0 1 1 131 
10 0 0 0 0 7 1 131 
2 0 0 0 0 3 1 131 
4 0 0 0 0 3 1 131 
8 0 0 0 0 3 1 131 
0 0 0 0 0 0 1 132 
0 0 0 0 0 0 0 
